instances/p1/p1_15_13-2.dzn
Alphabet = {A,C,G,T};
ns = 15;
nc = 13;
neighbours = [| I(A),I(A),I(A),I(A),I(A),I(C),I(A),I(A),I(A),I(A),I(A),I(A),I(A) | I(C),I(A),I(A),I(A),I(G),I(C),I(C),I(A),I(C),I(A),I(A),I(G),I(C) | I(C),I(A),I(C),I(A),I(C),I(C),I(A),I(A),I(A),I(A),I(A),I(G),I(G) | I(C),I(C),I(A),I(C),I(A),I(A),I(C),I(A),I(C),I(A),I(A),I(C),I(A) | I(C),I(C),I(C),I(A),I(A),I(A),I(A),I(A),I(A),I(A),I(A),I(C),I(C) | I(A),I(A),I(A),I(A),I(A),I(A),I(C),I(C),I(A),I(A),I(C),I(A),I(A) | I(A),I(A),I(A),I(G),I(A),I(A),I(A),I(C),I(A),I(A),I(A),I(A),I(A) | I(C),I(A),I(G),I(C),I(C),I(A),I(T),I(A),I(A),I(A),I(A),I(A),I(A) | I(A),I(A),I(A),I(A),I(C),I(C),I(A),I(A),I(A),I(A),I(A),I(A),I(C) | I(A),I(G),I(C),I(A),I(C),I(C),I(A),I(C),I(A),I(A),I(A),I(A),I(C) | I(A),I(A),I(A),I(A),I(G),I(A),I(A),I(A),I(A),I(C),I(A),I(A),I(A) | I(A),I(A),I(C),I(A),I(A),I(C),I(A),I(T),I(A),I(A),I(A),I(C),I(C) | I(A),I(A),I(C),I(A),I(A),I(A),I(A),I(C),I(A),I(A),I(A),I(A),I(C) | I(C),I(A),I(A),I(A),I(A),I(A),I(C),I(A),I(C),I(A),I(C),I(A),I(A) | I(C),I(A),I(C),I(C),I(A),I(A),I(C),I(A),I(A),I(A),I(C),I(A),I(A) |];
