instances/p1/p1_15_13-2.txt
{
	"num_strings": 15,
	"alphabet": "ACGT",
	"strings": [
		"AAAAACAAAAAAA",
		"CAAAGCCACAAGC",
		"CACACCAAAAAGG",
		"CCACAACACAACA",
		"CCCAAAAAAAACC",
		"AAAAAACCAACAA",
		"AAAGAAACAAAAA",
		"CAGCCATAAAAAA",
		"AAAACCAAAAAAC",
		"AGCACCACAAAAC",
		"AAAAGAAAACAAA",
		"AACAACATAAACC",
		"AACAAAACAAAAC",
		"CAAAAACACACAA",
		"CACCAACAAACAA"
	],
	"str_length":[13,13,13,13,13,13,13,13,13,13,13,13,13,13,13]
}